24 60
1 2 92
1 4 89
1 12 96
1 15 22
1 18 90
2 4 69
2 12 38
2 15 4
2 18 52
3 5 12
3 10 17
3 21 82
3 22 54
3 24 78
4 12 70
4 15 36
4 18 1
5 10 32
5 21 2
5 22 19
5 24 20
6 7 65
6 9 95
6 19 35
6 20 70
6 23 19
7 9 35
7 19 30
7 20 98
7 23 93
8 11 73
8 13 46
8 14 97
8 16 78
8 17 12
9 19 69
9 20 19
9 23 62
10 21 75
10 22 49
10 24 66
11 13 64
11 14 46
11 16 86
11 17 56
12 15 94
12 18 99
13 14 5
13 16 97
13 17 78
14 16 82
14 17 68
15 18 80
16 17 42
19 20 98
19 23 84
20 23 57
21 22 55
21 24 17
22 24 62
